2 30
298 289 
0 14 7 25 25 22 64 2
1 61 55 95 98 99 24 2
2 6 1 70 72 50 48 1
3 84 90 51 45 78 65 1
4 26 27 80 78 29 54 2
5 60 69 15 23 32 29 2
6 9 4 30 31 78 96 1
7 67 59 97 97 80 31 1
8 88 92 52 59 1 8 2
9 61 69 25 24 49 96 2
10 41 51 90 97 36 31 2
11 60 54 74 65 21 95 1
12 35 43 92 94 43 68 1
13 44 51 94 98 47 25 1
14 37 44 88 78 20 42 1
15 65 72 81 86 81 39 2
16 23 16 1 3 91 58 2
17 30 39 43 34 34 84 2
18 11 16 40 39 40 25 1
19 36 41 9 8 23 97 2
20 33 32 46 39 69 58 2
21 37 47 15 13 78 93 2
22 10 3 60 54 17 26 2
23 76 74 48 48 39 26 2
24 93 88 10 6 84 31 1
25 27 31 53 46 54 9 1
26 83 73 6 16 94 79 2
27 55 63 2 1 37 76 2
28 91 93 6 15 51 97 2
29 89 86 66 57 50 82 1
